num_offers = 20;
num_halls = 10;
start=[28,34,54,21,53,68,5,36,3,56,33,13,30,5,6,17,18,32,10,22];
end=[67,73,87,30,72,90,76,52,50,91,60,76,41,94,25,60,93,92,93,50];
price=[1759,1937,3176,626,1594,1013,3749,1294,1728,3381,2486,2525,1085,1562,1363,2508,7178,5843,3499,1408];
requirement=[406,292,320,503,569,742,379,909,891,228,812,616,456,545,940,403,391,731,507,673];
capacity=[805,403,722,750,990,880,928,531,452,583];
